Instance: Data/Instances_txt/inst_200_30_4.txt
SetUpTime: 3242.177589893341

Gurobi 10.0.1 (mac64[x86]) logging started Mo 14 Aug 12:40:51 2023

Set parameter LogFile to value "Output/MILP_RELAXED_inst_200_30_4_2023-08-14_09-45-28.txt"

Gurobi 10.0.1 (mac64[x86]) logging started Mo 14 Aug 12:40:51 2023

Set parameter LogFile to value "Output/MILP_RELAXED_inst_200_30_4_2023-08-14_09-45-28.txt"
Gurobi Optimizer version 10.0.1 build v10.0.1rc0 (mac64[x86])

CPU model: Intel(R) Core(TM) i5-1038NG7 CPU @ 2.00GHz
Thread count: 4 physical cores, 8 logical processors, using up to 8 threads

Optimize a model with 401 rows, 830150 columns and 9820086 nonzeros
Model fingerprint: 0xa56dc823
Coefficient statistics:
  Matrix range     [1e+00, 1e+00]
  Objective range  [2e+00, 2e+04]
  Bounds range     [1e+00, 1e+00]
  RHS range        [1e+00, 1e+00]
Presolve time: 3.72s
Presolved: 401 rows, 830150 columns, 9820086 nonzeros

Concurrent LP optimizer: dual simplex and barrier
Showing barrier log only...

Ordering time: 0.00s

Barrier statistics:
 AA' NZ     : 5.258e+04
 Factor NZ  : 8.060e+04 (roughly 300 MB of memory)
 Factor Ops : 2.157e+07 (less than 1 second per iteration)
 Threads    : 3

                  Objective                Residual
Iter       Primal          Dual         Primal    Dual     Compl     Time
   0   4.90427131e+08  0.00000000e+00  1.56e+04 0.00e+00  1.56e+00     5s
   1   8.23936633e+07 -7.24183587e+04  2.54e+03 1.31e+00  2.57e-01     6s
   2   2.13155099e+06 -7.66016038e+04  5.80e+01 5.68e-14  6.61e-03     6s
   3   2.40886746e+05 -4.47288869e+04  3.21e+00 4.26e-14  7.30e-04     7s
   4   1.30149202e+05  1.87546421e+04  4.23e-01 2.84e-14  2.61e-04     7s
   5   1.12500849e+05  2.39071479e+04  1.67e-01 4.26e-14  2.07e-04     7s
   6   1.03187879e+05  4.89187790e+04  7.66e-02 2.84e-14  1.26e-04     8s
   7   9.78205183e+04  6.02545469e+04  4.74e-02 2.84e-14  8.67e-05     8s
   8   8.84377587e+04  6.50568985e+04  1.03e-02 4.26e-14  5.46e-05     8s
   9   8.45626821e+04  7.10545905e+04  5.00e-03 2.84e-14  3.16e-05     9s
  10   8.39115512e+04  7.29659745e+04  4.35e-03 2.84e-14  2.55e-05     9s
  11   8.36001794e+04  7.32932428e+04  4.08e-03 2.84e-14  2.41e-05    10s
  12   8.30409802e+04  7.35505623e+04  3.64e-03 3.20e-14  2.22e-05    10s
  13   8.06133542e+04  7.44575370e+04  2.23e-03 3.55e-14  1.44e-05    10s
  14   7.81424119e+04  7.49090134e+04  1.08e-03 2.84e-14  7.55e-06    11s
  15   7.62096532e+04  7.50898254e+04  2.51e-04 2.84e-14  2.62e-06    11s
  16   7.55917076e+04  7.52235438e+04  5.83e-05 2.84e-14  8.63e-07    12s
  17   7.54583389e+04  7.52696717e+04  2.53e-05 3.55e-14  4.43e-07    12s
  18   7.53719826e+04  7.52949326e+04  7.30e-06 2.84e-14  1.81e-07    12s
  19   7.53603774e+04  7.53087607e+04  5.44e-06 3.55e-14  1.21e-07    13s
  20   7.53535120e+04  7.53134756e+04  4.44e-06 4.26e-14  9.40e-08    13s
  21   7.53419911e+04  7.53175190e+04  2.87e-06 4.97e-14  5.74e-08    13s
  22   7.53317897e+04  7.53187270e+04  1.51e-06 4.97e-14  3.07e-08    14s
  23   7.53230880e+04  7.53193631e+04  3.72e-07 2.84e-14  8.74e-09    14s
  24   7.53208977e+04  7.53198718e+04  9.90e-08 4.97e-14  2.41e-09    14s
  25   7.53202281e+04  7.53199431e+04  2.39e-08 4.26e-14  6.69e-10    15s
  26   7.53201047e+04  7.53199643e+04  9.96e-09 2.84e-14  3.30e-10    15s
  27   7.53200441e+04  7.53199953e+04  4.18e-09 4.26e-14  1.15e-10    15s
  28   7.53200119e+04  7.53199986e+04  1.88e-09 4.26e-14  3.14e-11    16s
  29   7.53199991e+04  7.53199988e+04  9.76e-10 3.55e-14  6.62e-13    16s

Barrier solved model in 29 iterations and 16.29 seconds (13.58 work units)
Optimal objective 7.53199991e+04

Crossover log...

     124 DPushes remaining with DInf 0.0000000e+00                16s
       0 DPushes remaining with DInf 0.0000000e+00                18s

     326 PPushes remaining with PInf 0.0000000e+00                18s
       0 PPushes remaining with PInf 0.0000000e+00                18s

  Push phase complete: Pinf 0.0000000e+00, Dinf 9.3496800e-05     18s

Iteration    Objective       Primal Inf.    Dual Inf.      Time
     451    7.5319999e+04   0.000000e+00   9.349682e-05     18s

Solved with barrier
     453    7.5319999e+04   0.000000e+00   0.000000e+00     19s

Solved in 453 iterations and 19.21 seconds (15.26 work units)
Optimal objective  7.531999885e+04

User-callback calls 1029, time in user-callback 0.00 sec

=========================

OUTPUT STATISTICS
Relaxed: true
Time since start: 3400.754168987274
SetUpTime: 3242.177589893341
Objective value LB: 75319.99885307369
Objective value UB: 82625.0
Solving time LB: 43.29485082626343
Solving time UB: 42.839142084121704
Gap: 0.08841151161181618
